c A SAT instance generated from a 3-CNF formula that had 60 clauses and 10 variables
p cnf 10 60
-4 1 -9 0
-4 -2 -7 0
9 2 -7 0
7 1 4 0
-4 6 -8 0
1 8 4 0
9 8 -7 0
8 -2 5 0
6 8 -1 0
3 -10 4 0
-1 -4 -9 0
9 8 5 0
-10 -2 1 0
5 -6 -7 0
-7 -5 -1 0
2 8 -4 0
9 5 10 0
-5 -2 -6 0
8 10 3 0
-6 2 -8 0
-5 -7 -10 0
-2 7 -9 0
5 -9 -6 0
-3 4 9 0
8 10 -1 0
-9 3 2 0
2 -10 3 0
9 -6 1 0
6 -3 9 0
-5 -2 -6 0
-1 9 -6 0
6 7 -8 0
-9 -7 -1 0
-4 8 9 0
-6 3 -10 0
9 6 1 0
1 10 -6 0
-7 -9 -10 0
3 -2 1 0
-9 -4 5 0
9 3 -10 0
-7 -2 4 0
4 5 9 0
-6 2 5 0
1 -3 -6 0
2 -7 8 0
10 -9 7 0
-6 -2 7 0
-4 -6 -5 0
1 -9 3 0
2 5 3 0
4 -6 -2 0
9 8 6 0
-9 -5 -2 0
-3 1 9 0
-8 -4 10 0
10 -4 -2 0
-1 7 2 0
-3 -8 -2 0
-7 3 -2 0
%
0

98 31 34 34 37 99 31 17 70 15
